Route #1: 1 10 11 23 6 34 22 3 1
Route #2: 1 40 36 33 14 19 8 17 21 39 9 1
Route #3: 1 42 44 12 4 29 7 5 1
Route #4: 1 15 25 45 28 30 1
Route #5: 1 41 18 24 26 16 43 1
Route #6: 1 32 20 37 31 38 2 1
Route #7: 1 13 27 35 1
cost: 1234
